1333358
0,33,51,89,23,108,9,48,10,90,70,98,17,49,75,104,12,92,95,61,86,72,18,41,77,32,107,105,67,39,54,59,6,87,64,11,35,27,7,13,69,68,26,85,56,74,71,25,36,8,65,76,40,37,30,38,46,96,88,103,57,53,101,99,20,47,79,16,52,21,63,14,22,78,66,3,91,73,55,102,29,5,60,84,42,94,31,50,83,58,1,80,45,93,106,15,28,24,43,19,62,2,82,44,81,4,34,97,100,0